c A SAT instance generated from a 3-CNF formula that had 20 clauses and 10 variables
p cnf 10 20
10 5 -2 0
7 3 -6 0
-1 8 6 0
9 7 6 0
-4 -3 6 0
-1 -5 -10 0
-10 -8 -5 0
2 3 6 0
1 -7 3 0
5 7 6 0
4 10 2 0
8 2 -5 0
-7 8 9 0
-6 -1 10 0
6 3 5 0
-7 -9 2 0
-6 -8 -10 0
9 1 -6 0
4 2 7 0
-10 8 -7 0
